c "351279.clq"
p edge 142 552
e 1 5
e 1 10
e 1 48
e 1 100
e 1 122
e 1 138
e 2 5
e 2 6
e 2 7
e 2 8
e 2 9
e 2 13
e 2 15
e 2 18
e 2 22
e 2 37
e 2 53
e 2 55
e 2 66
e 2 74
e 2 123
e 3 5
e 3 6
e 3 7
e 3 8
e 3 10
e 3 11
e 3 13
e 3 15
e 3 17
e 3 19
e 3 20
e 3 21
e 3 23
e 3 24
e 3 25
e 3 26
e 3 27
e 3 28
e 3 29
e 3 32
e 3 33
e 3 34
e 3 36
e 3 39
e 3 40
e 3 42
e 3 43
e 3 44
e 3 45
e 3 46
e 3 47
e 3 49
e 3 56
e 3 57
e 3 59
e 3 61
e 3 62
e 3 65
e 3 66
e 3 67
e 3 69
e 3 77
e 3 80
e 3 82
e 3 86
e 3 88
e 3 95
e 3 97
e 3 98
e 3 100
e 3 104
e 3 105
e 3 109
e 3 120
e 3 127
e 3 128
e 3 129
e 3 133
e 3 141
e 4 5
e 4 6
e 4 9
e 4 10
e 4 12
e 4 13
e 4 14
e 4 15
e 4 18
e 4 22
e 4 24
e 4 28
e 4 31
e 4 47
e 4 49
e 4 52
e 4 56
e 4 57
e 4 64
e 4 72
e 4 74
e 4 91
e 4 101
e 4 105
e 4 106
e 4 130
e 4 133
e 4 135
e 4 137
e 5 6
e 5 7
e 5 8
e 5 9
e 5 11
e 5 12
e 5 14
e 5 15
e 5 18
e 5 19
e 5 20
e 5 21
e 5 22
e 5 26
e 5 30
e 5 31
e 5 35
e 5 42
e 5 69
e 5 79
e 5 90
e 5 95
e 5 101
e 5 106
e 5 112
e 5 115
e 5 123
e 5 137
e 5 139
e 5 141
e 6 7
e 6 8
e 6 9
e 6 12
e 6 14
e 6 24
e 6 30
e 6 31
e 6 32
e 6 37
e 6 38
e 6 39
e 6 45
e 6 51
e 6 54
e 6 57
e 6 58
e 6 59
e 6 61
e 6 63
e 6 65
e 6 78
e 6 97
e 6 106
e 6 118
e 6 122
e 6 127
e 6 128
e 6 131
e 6 134
e 7 39
e 7 46
e 7 48
e 7 56
e 7 63
e 7 76
e 7 78
e 7 87
e 7 93
e 7 96
e 7 108
e 7 118
e 7 129
e 7 140
e 8 11
e 8 14
e 8 19
e 8 20
e 8 25
e 8 36
e 8 46
e 8 55
e 8 74
e 8 76
e 8 94
e 8 95
e 8 105
e 8 120
e 8 125
e 9 10
e 9 11
e 9 13
e 9 16
e 9 17
e 9 20
e 9 22
e 9 29
e 9 31
e 9 38
e 9 40
e 9 41
e 9 49
e 9 52
e 9 59
e 9 72
e 9 76
e 9 77
e 9 79
e 9 81
e 9 87
e 9 99
e 9 117
e 9 131
e 9 142
e 10 16
e 10 17
e 10 18
e 10 21
e 10 27
e 10 35
e 10 39
e 10 43
e 10 44
e 10 48
e 10 50
e 10 55
e 10 70
e 10 75
e 10 84
e 10 89
e 10 93
e 10 113
e 10 125
e 10 129
e 10 134
e 11 12
e 11 23
e 11 33
e 11 54
e 12 16
e 12 34
e 12 52
e 12 68
e 12 84
e 12 104
e 13 28
e 13 41
e 13 54
e 13 61
e 13 63
e 13 65
e 13 71
e 13 74
e 13 96
e 13 99
e 13 113
e 14 16
e 14 21
e 14 23
e 14 25
e 14 26
e 14 30
e 14 33
e 14 35
e 14 42
e 14 50
e 14 51
e 14 52
e 14 57
e 14 60
e 14 71
e 14 81
e 14 84
e 14 85
e 14 104
e 14 108
e 14 118
e 14 131
e 14 132
e 14 140
e 15 29
e 15 38
e 15 64
e 15 76
e 15 86
e 15 98
e 15 112
e 16 17
e 16 25
e 16 47
e 16 62
e 16 65
e 16 88
e 16 90
e 16 100
e 16 142
e 17 109
e 18 19
e 18 23
e 18 40
e 18 44
e 18 51
e 18 53
e 18 58
e 18 103
e 18 122
e 18 126
e 20 24
e 20 26
e 20 28
e 20 37
e 20 75
e 20 85
e 20 110
e 21 58
e 21 78
e 21 83
e 21 116
e 22 83
e 22 87
e 22 93
e 23 27
e 23 41
e 23 66
e 23 82
e 24 32
e 24 36
e 24 49
e 24 94
e 24 97
e 24 119
e 25 40
e 25 43
e 25 67
e 25 70
e 25 123
e 25 126
e 26 27
e 26 29
e 26 34
e 26 41
e 26 68
e 26 75
e 26 79
e 26 96
e 26 103
e 26 128
e 27 30
e 27 90
e 27 92
e 28 38
e 28 58
e 28 64
e 28 70
e 28 79
e 28 93
e 29 33
e 29 35
e 29 53
e 29 71
e 29 90
e 29 113
e 30 32
e 30 50
e 30 68
e 30 130
e 31 46
e 31 56
e 31 117
e 32 34
e 33 47
e 33 85
e 33 109
e 33 121
e 34 42
e 34 81
e 34 86
e 34 88
e 35 36
e 35 37
e 35 44
e 35 60
e 35 62
e 35 63
e 35 96
e 35 98
e 35 112
e 35 120
e 36 84
e 37 72
e 37 92
e 37 134
e 38 45
e 38 69
e 38 89
e 38 115
e 38 121
e 39 43
e 39 51
e 39 73
e 39 111
e 39 114
e 40 60
e 40 70
e 40 91
e 40 105
e 40 114
e 40 130
e 40 132
e 40 136
e 40 142
e 41 55
e 41 64
e 41 88
e 41 135
e 42 111
e 42 124
e 43 60
e 43 66
e 43 68
e 43 73
e 43 86
e 44 45
e 44 48
e 44 81
e 44 116
e 45 53
e 45 61
e 45 75
e 45 87
e 45 119
e 45 136
e 46 50
e 46 110
e 47 59
e 47 62
e 47 67
e 47 69
e 47 101
e 47 107
e 47 113
e 47 136
e 48 77
e 49 89
e 49 114
e 49 131
e 49 135
e 50 72
e 50 101
e 50 110
e 51 54
e 51 91
e 52 137
e 53 102
e 56 80
e 57 117
e 58 73
e 59 124
e 60 99
e 60 119
e 60 125
e 61 67
e 61 115
e 61 128
e 62 83
e 62 92
e 62 99
e 63 85
e 63 123
e 65 73
e 65 80
e 65 108
e 66 78
e 66 118
e 66 132
e 67 94
e 69 80
e 69 110
e 70 71
e 70 77
e 70 82
e 70 111
e 71 94
e 71 102
e 71 130
e 72 100
e 72 121
e 73 97
e 73 122
e 74 82
e 74 91
e 74 92
e 74 98
e 74 103
e 75 112
e 77 107
e 79 83
e 79 125
e 80 89
e 80 103
e 80 119
e 80 139
e 81 95
e 81 115
e 81 126
e 81 129
e 81 134
e 81 138
e 82 102
e 82 107
e 84 137
e 84 142
e 86 109
e 86 127
e 87 121
e 89 139
e 90 106
e 90 116
e 90 117
e 91 133
e 94 132
e 95 107
e 96 102
e 97 108
e 100 127
e 103 104
e 103 111
e 105 124
e 106 133
e 107 114
e 108 140
e 109 135
e 111 124
e 112 116
e 114 126
e 116 136
e 119 120
e 120 140
e 122 139
e 124 141
e 125 138
e 126 141
e 132 138
